(set-info :smt-lib-version 2.6)
(set-logic QF_BV)
(set-info :source |
 Patrice Godefroid, SAGE (systematic dynamic test generation)
 For more information: http://research.microsoft.com/en-us/um/people/pg/public_psfiles/ndss2008.pdf
|)
(set-info :category "industrial")
(set-info :status unsat)
(declare-fun T1_22014 () (_ BitVec 8))
(declare-fun T1_21887 () (_ BitVec 8))
(declare-fun T1_21780 () (_ BitVec 8))
(declare-fun T2_21778 () (_ BitVec 16))
(declare-fun T1_21776 () (_ BitVec 8))
(declare-fun T2_21767 () (_ BitVec 16))
(declare-fun T1_21758 () (_ BitVec 8))
(declare-fun T2_21366 () (_ BitVec 16))
(declare-fun T1_21357 () (_ BitVec 8))
(declare-fun T4_21759 () (_ BitVec 32))
(declare-fun T2_21227 () (_ BitVec 16))
(declare-fun T4_21219 () (_ BitVec 32))
(declare-fun T4_21754 () (_ BitVec 32))
(declare-fun T4_21214 () (_ BitVec 32))
(declare-fun T1_21778 () (_ BitVec 8))
(declare-fun T1_21779 () (_ BitVec 8))
(declare-fun T1_21767 () (_ BitVec 8))
(declare-fun T1_21768 () (_ BitVec 8))
(declare-fun T1_21759 () (_ BitVec 8))
(declare-fun T1_21760 () (_ BitVec 8))
(declare-fun T1_21761 () (_ BitVec 8))
(declare-fun T1_21762 () (_ BitVec 8))
(declare-fun T1_21754 () (_ BitVec 8))
(declare-fun T1_21755 () (_ BitVec 8))
(declare-fun T1_21756 () (_ BitVec 8))
(declare-fun T1_21757 () (_ BitVec 8))
(declare-fun T1_21366 () (_ BitVec 8))
(declare-fun T1_21367 () (_ BitVec 8))
(declare-fun T1_21227 () (_ BitVec 8))
(declare-fun T1_21228 () (_ BitVec 8))
(declare-fun T1_21219 () (_ BitVec 8))
(declare-fun T1_21220 () (_ BitVec 8))
(declare-fun T1_21221 () (_ BitVec 8))
(declare-fun T1_21222 () (_ BitVec 8))
(declare-fun T1_21214 () (_ BitVec 8))
(declare-fun T1_21215 () (_ BitVec 8))
(declare-fun T1_21216 () (_ BitVec 8))
(declare-fun T1_21217 () (_ BitVec 8))
(assert (let ((?v_20 ((_ zero_extend 24) T1_22014)) (?v_16 ((_ zero_extend 24) T1_21887)) (?v_11 ((_ zero_extend 24) T1_21780)) (?v_19 ((_ zero_extend 16) T2_21778)) (?v_13 ((_ zero_extend 24) T1_21776)) (?v_7 ((_ zero_extend 16) T2_21767)) (?v_3 ((_ zero_extend 16) T2_21366)) (?v_1 (bvsub ((_ zero_extend 24) T1_21357) (_ bv8 32)))) (let ((?v_9 (bvadd (bvadd (bvadd (bvadd (bvadd (bvadd (bvadd (bvadd ?v_1 (_ bv1582341 32)) ?v_3) (_ bv15 32)) (bvsub ((_ zero_extend 24) T1_21758) (_ bv8 32))) (_ bv2 32)) ?v_7) (_ bv7 32)) ?v_13))) (let ((?v_14 (bvadd (bvadd ?v_9 (_ bv3 32)) ?v_11))) (let ((?v_15 (bvsub ?v_14 (_ bv1582311 32)))) (let ((?v_17 (bvsub (bvadd (bvadd ?v_15 (_ bv1582312 32)) ?v_16) (_ bv1 32))) (?v_18 (bvadd ?v_15 (_ bv1582438 32))) (?v_10 (bvsub ?v_9 (_ bv1582309 32)))) (let ((?v_12 (bvsub (bvadd (bvadd ?v_10 (_ bv1582312 32)) ?v_11) (_ bv1 32))) (?v_6 ((_ zero_extend 16) T2_21227))) (let ((?v_8 (bvadd ?v_6 T4_21214)) (?v_5 (bvadd T4_21219 (_ bv1 32))) (?v_4 (bvadd T4_21219 (_ bv58683015 32)))) (let ((?v_2 ((_ extract 7 0) (bvsub (_ bv120 32) ?v_5))) (?v_0 (bvsub (bvadd (bvadd ?v_14 ((_ zero_extend 24) (_ bv1 8))) ?v_16) (_ bv1582311 32)))) (and true (= T4_21214 (bvor (bvshl (bvor (bvshl (bvor (bvshl ((_ zero_extend 24) T1_21217) (_ bv8 32)) ((_ zero_extend 24) T1_21216)) (_ bv8 32)) ((_ zero_extend 24) T1_21215)) (_ bv8 32)) ((_ zero_extend 24) T1_21214))) (= T4_21219 (bvor (bvshl (bvor (bvshl (bvor (bvshl ((_ zero_extend 24) T1_21222) (_ bv8 32)) ((_ zero_extend 24) T1_21221)) (_ bv8 32)) ((_ zero_extend 24) T1_21220)) (_ bv8 32)) ((_ zero_extend 24) T1_21219))) (= T2_21227 (bvor (bvshl ((_ zero_extend 8) T1_21228) (_ bv8 16)) ((_ zero_extend 8) T1_21227))) (= T2_21366 (bvor (bvshl ((_ zero_extend 8) T1_21367) (_ bv8 16)) ((_ zero_extend 8) T1_21366))) (= T4_21754 (bvor (bvshl (bvor (bvshl (bvor (bvshl ((_ zero_extend 24) T1_21757) (_ bv8 32)) ((_ zero_extend 24) T1_21756)) (_ bv8 32)) ((_ zero_extend 24) T1_21755)) (_ bv8 32)) ((_ zero_extend 24) T1_21754))) (= T4_21759 (bvor (bvshl (bvor (bvshl (bvor (bvshl ((_ zero_extend 24) T1_21762) (_ bv8 32)) ((_ zero_extend 24) T1_21761)) (_ bv8 32)) ((_ zero_extend 24) T1_21760)) (_ bv8 32)) ((_ zero_extend 24) T1_21759))) (= T2_21767 (bvor (bvshl ((_ zero_extend 8) T1_21768) (_ bv8 16)) ((_ zero_extend 8) T1_21767))) (= T2_21778 (bvor (bvshl ((_ zero_extend 8) T1_21779) (_ bv8 16)) ((_ zero_extend 8) T1_21778))) (bvule (bvsub (bvadd (bvadd ?v_0 (_ bv1582312 32)) ?v_20) (_ bv1 32)) (bvadd ?v_0 (_ bv1582370 32))) (not (= (bvadd (bvadd ?v_1 (_ bv29 32)) (_ bv1582312 32)) (_ bv0 32))) (= (bvand ?v_2 (_ bv128 8)) (_ bv0 8)) (not (= (bvand ?v_2 (_ bv63 8)) (_ bv0 8))) (not (= ?v_2 (_ bv4 8))) (not (= ?v_2 (_ bv5 8))) (not (= (bvand (bvadd ?v_6 (_ bv58683016 32)) (_ bv3 32)) (_ bv0 32))) (not (= ?v_3 (_ bv0 32))) (bvult (_ bv58683104 32) ?v_4) (bvult (_ bv58683082 32) ?v_4) (not (= ?v_5 (_ bv0 32))) (= T4_21214 (_ bv0 32)) (bvule ?v_6 T4_21219) (bvsle (_ bv0 32) T4_21219) (not (= ?v_8 T4_21219)) (not (= T4_21219 (_ bv0 32))) (not (= T4_21219 ?v_6)) (bvult (bvsub ?v_7 (_ bv4 32)) (_ bv0 32)) (= T4_21754 ?v_8) (bvult T4_21214 T4_21754) (not (= T4_21754 T4_21214)) (= (bvadd ?v_7 T4_21754) T4_21219) (= T4_21759 T4_21219) (not (= T4_21759 (_ bv0 32))) (bvule ?v_7 (bvsub T4_21219 ?v_6)) (not (= T4_21759 ?v_7)) (bvult (bvadd ?v_10 (_ bv1582408 32)) ?v_12) (bvult (bvadd ?v_10 (_ bv1582398 32)) ?v_12) (bvult (bvadd ?v_10 (_ bv1582338 32)) ?v_12) (= ?v_13 (_ bv1 32)) (not (= ?v_19 (_ bv0 32))) (not (= ?v_18 ?v_17)) (bvule ?v_17 ?v_18) (bvult (bvadd ?v_15 (_ bv1582408 32)) ?v_17) (bvult (bvadd ?v_15 (_ bv1582388 32)) ?v_17) (bvult (bvadd ?v_15 (_ bv1582384 32)) ?v_17) (= (bvadd (bvadd (bvadd ?v_19 (bvsub (_ bv4294967295 32) ?v_11)) (bvsub (_ bv4294967295 32) ?v_16)) (bvsub (_ bv4294967295 32) ?v_20)) (_ bv0 32))))))))))))
(check-sat)
(exit)
